instances/shortest_path/discrete/shortest_path_5_8.lp
\ Model nohadani_5_8
\ LP format - for model browsing. Use MPS format to capture full model detail.
\ Signature: 0xa1d49c5c4aa7c587
Minimize
  23.25940669922602 y[0,2] + 52.39274758971894 y[0,3]
   + 71.8679344353238 y[1,2] + 70.06425622241343 y[1,3]
   + 68.44705983459041 y[1,4] + 23.25940669922602 y[2,0]
   + 71.8679344353238 y[2,1] + 41.97618372363071 y[2,3]
   + 67.00746227100382 y[2,4] + 52.39274758971894 y[3,0]
   + 70.06425622241343 y[3,1] + 41.97618372363071 y[3,2]
   + 27.20294101747089 y[3,4] + 68.44705983459041 y[4,1]
   + 67.00746227100382 y[4,2] + 27.20294101747089 y[4,3] + x[0,2] + x[0,3]
   + x[1,2] + x[1,3] + x[1,4] + x[2,0] + x[2,1] + x[2,3] + x[2,4] + x[3,0]
   + x[3,1] + x[3,2] + x[3,4] + x[4,1] + x[4,2] + x[4,3]
   + 2.325940669922602 r[0,2] + 5.239274758971895 r[0,3]
   + 7.18679344353238 r[1,2] + 7.006425622241344 r[1,3]
   + 6.844705983459041 r[1,4] + 2.325940669922602 r[2,0]
   + 7.18679344353238 r[2,1] + 4.197618372363071 r[2,3]
   + 6.700746227100382 r[2,4] + 5.239274758971895 r[3,0]
   + 7.006425622241344 r[3,1] + 4.197618372363071 r[3,2]
   + 2.720294101747089 r[3,4] + 6.844705983459041 r[4,1]
   + 6.700746227100382 r[4,2] + 2.720294101747089 r[4,3]
Subject To
 flow_cons_inner_nodes[2]: y[0,2] + y[1,2] - y[2,0] - y[2,1] - y[2,3]
   - y[2,4] + y[3,2] + y[4,2] = 0
 flow_cons_inner_nodes[3]: y[0,3] + y[1,3] + y[2,3] - y[3,0] - y[3,1]
   - y[3,2] - y[3,4] + y[4,3] = 0
 flow_cons_inner_nodes[4]: y[1,4] + y[2,4] + y[3,4] - y[4,1] - y[4,2]
   - y[4,3] = 0
 flow_cons_source: y[0,2] + y[0,3] - y[2,0] - y[3,0] = 1
 flow_cons_target: - y[1,2] - y[1,3] - y[1,4] + y[2,1] + y[3,1] + y[4,1]
   = 1
 primal_lower: 3.707323990751861 x[0,2] + 0.7802733153351141 x[0,3]
   + 0.7256041055323353 x[1,2] + 5.619851304526147 x[1,3]
   + 5.329963358387126 x[1,4] + 1.474570495477157 x[2,0]
   + 5.694063166332906 x[2,1] + 3.160383935819182 x[2,3]
   + 0.5356866567278887 x[2,4] + 3.80889217745474 x[3,0]
   + 5.124900185330226 x[3,1] + 3.664155256042339 x[3,2]
   + 3.532208978073496 x[3,4] + 2.752462872757587 x[4,1]
   + 1.980905893484223 x[4,2] + 3.19715222532304 x[4,3] + 34 u[0,2]
   + 42 u[0,3] + 80 u[1,2] + 97 u[1,3] + 18 u[1,4] + 64 u[2,0] + 67 u[2,1]
   + 78 u[2,3] + 71 u[2,4] + 48 u[3,0] + 82 u[3,1] + 69 u[3,2] + 38 u[3,4]
   + 38 u[4,1] + 39 u[4,2] + 23 u[4,3] <= 97
 mccormick1[0,2]: - u[0,2] + r[0,2] <= 0
 mccormick1[0,3]: - u[0,3] + r[0,3] <= 0
 mccormick1[1,2]: - u[1,2] + r[1,2] <= 0
 mccormick1[1,3]: - u[1,3] + r[1,3] <= 0
 mccormick1[1,4]: - u[1,4] + r[1,4] <= 0
 mccormick1[2,0]: - u[2,0] + r[2,0] <= 0
 mccormick1[2,1]: - u[2,1] + r[2,1] <= 0
 mccormick1[2,3]: - u[2,3] + r[2,3] <= 0
 mccormick1[2,4]: - u[2,4] + r[2,4] <= 0
 mccormick1[3,0]: - u[3,0] + r[3,0] <= 0
 mccormick1[3,1]: - u[3,1] + r[3,1] <= 0
 mccormick1[3,2]: - u[3,2] + r[3,2] <= 0
 mccormick1[3,4]: - u[3,4] + r[3,4] <= 0
 mccormick1[4,1]: - u[4,1] + r[4,1] <= 0
 mccormick1[4,2]: - u[4,2] + r[4,2] <= 0
 mccormick1[4,3]: - u[4,3] + r[4,3] <= 0
 mccormick2[0,2]: - y[0,2] + r[0,2] <= 0
 mccormick2[0,3]: - y[0,3] + r[0,3] <= 0
 mccormick2[1,2]: - y[1,2] + r[1,2] <= 0
 mccormick2[1,3]: - y[1,3] + r[1,3] <= 0
 mccormick2[1,4]: - y[1,4] + r[1,4] <= 0
 mccormick2[2,0]: - y[2,0] + r[2,0] <= 0
 mccormick2[2,1]: - y[2,1] + r[2,1] <= 0
 mccormick2[2,3]: - y[2,3] + r[2,3] <= 0
 mccormick2[2,4]: - y[2,4] + r[2,4] <= 0
 mccormick2[3,0]: - y[3,0] + r[3,0] <= 0
 mccormick2[3,1]: - y[3,1] + r[3,1] <= 0
 mccormick2[3,2]: - y[3,2] + r[3,2] <= 0
 mccormick2[3,4]: - y[3,4] + r[3,4] <= 0
 mccormick2[4,1]: - y[4,1] + r[4,1] <= 0
 mccormick2[4,2]: - y[4,2] + r[4,2] <= 0
 mccormick2[4,3]: - y[4,3] + r[4,3] <= 0
 mccormick3[0,2]: - y[0,2] - u[0,2] + r[0,2] >= -1
 mccormick3[0,3]: - y[0,3] - u[0,3] + r[0,3] >= -1
 mccormick3[1,2]: - y[1,2] - u[1,2] + r[1,2] >= -1
 mccormick3[1,3]: - y[1,3] - u[1,3] + r[1,3] >= -1
 mccormick3[1,4]: - y[1,4] - u[1,4] + r[1,4] >= -1
 mccormick3[2,0]: - y[2,0] - u[2,0] + r[2,0] >= -1
 mccormick3[2,1]: - y[2,1] - u[2,1] + r[2,1] >= -1
 mccormick3[2,3]: - y[2,3] - u[2,3] + r[2,3] >= -1
 mccormick3[2,4]: - y[2,4] - u[2,4] + r[2,4] >= -1
 mccormick3[3,0]: - y[3,0] - u[3,0] + r[3,0] >= -1
 mccormick3[3,1]: - y[3,1] - u[3,1] + r[3,1] >= -1
 mccormick3[3,2]: - y[3,2] - u[3,2] + r[3,2] >= -1
 mccormick3[3,4]: - y[3,4] - u[3,4] + r[3,4] >= -1
 mccormick3[4,1]: - y[4,1] - u[4,1] + r[4,1] >= -1
 mccormick3[4,2]: - y[4,2] - u[4,2] + r[4,2] >= -1
 mccormick3[4,3]: - y[4,3] - u[4,3] + r[4,3] >= -1
Bounds
Binaries
 y[0,2] y[0,3] y[1,2] y[1,3] y[1,4] y[2,0] y[2,1] y[2,3] y[2,4] y[3,0]
 y[3,1] y[3,2] y[3,4] y[4,1] y[4,2] y[4,3] x[0,2] x[0,3] x[1,2] x[1,3]
 x[1,4] x[2,0] x[2,1] x[2,3] x[2,4] x[3,0] x[3,1] x[3,2] x[3,4] x[4,1]
 x[4,2] x[4,3] u[0,2] u[0,3] u[1,2] u[1,3] u[1,4] u[2,0] u[2,1] u[2,3]
 u[2,4] u[3,0] u[3,1] u[3,2] u[3,4] u[4,1] u[4,2] u[4,3] r[0,2] r[0,3]
 r[1,2] r[1,3] r[1,4] r[2,0] r[2,1] r[2,3] r[2,4] r[3,0] r[3,1] r[3,2]
 r[3,4] r[4,1] r[4,2] r[4,3]
End
